units real
atom_style charge
box tilt large
read_data ${filename}.input_data
pair_style reax/c NULL safezone 5.0 mincap 5000
pair_coeff * * ${potential_file} ${elements_in_potential}
neighbor 5.0 bin
neigh_modify every 1 delay 0 check no
fix 1 all nvt temp ${temperature_of_system} ${temperature_of_system} 100.0
fix 2 all qeq/reax 1 0.0 10.0 1e-6 reax/c
dump coordinates all xyz ${write_data_every_n_steps} ${filename}.xyz
thermo ${write_data_every_n_steps}
timestep ${molecular_dynamics_timestep}
run ${num_steps}
write_data ${filename}.output_data
